c 223_3_checker.cnf
c
c field = 223
c formula set type = 3_checker
c
p cnf 4 14
438 
440 
442 
-436 
439 
441 
443 
-437 
438 
440 
442 
-446 
439 
441 
443 
-447 
440 
442 
446 
-438 
441 
443 
447 
-439 
440 
442 
446 
-448 
441 
443 
447 
-449 
442 
446 
448 
-440 
443 
447 
449 
-441 
354 
384 
414 
-324 
355 
385 
415 
-325 
348 
380 
412 
-316 
349 
381 
413 
-317 
